
******************************************************************************
This program contains Ipopt, a library for large-scale nonlinear optimization.
 Ipopt is released as open source code under the Eclipse Public License (EPL).
         For more information visit http://projects.coin-or.org/Ipopt

This version of Ipopt was compiled from source code available at
    https://github.com/IDAES/Ipopt as part of the Institute for the Design of
    Advanced Energy Systems Process Systems Engineering Framework (IDAES PSE
    Framework) Copyright (c) 2018-2019. See https://github.com/IDAES/idaes-pse.

This version of Ipopt was compiled using HSL, a collection of Fortran codes
    for large-scale scientific computation.  All technical papers, sales and
    publicity material resulting from use of the HSL codes within IPOPT must
    contain the following acknowledgement:
        HSL, a collection of Fortran codes for large-scale scientific
        computation. See http://www.hsl.rl.ac.uk.
******************************************************************************

This is Ipopt version 3.13.2, running with linear solver ma27.

Number of nonzeros in equality constraint Jacobian...:      808
Number of nonzeros in inequality constraint Jacobian.:        0
Number of nonzeros in Lagrangian Hessian.............:      702

Total number of variables............................:      351
                     variables with only lower bounds:      108
                variables with lower and upper bounds:      189
                     variables with only upper bounds:        0
Total number of equality constraints.................:      350
Total number of inequality constraints...............:        0
        inequality constraints with only lower bounds:        0
   inequality constraints with lower and upper bounds:        0
        inequality constraints with only upper bounds:        0

iter    objective    inf_pr   inf_du lg(mu)  ||d||  lg(rg) alpha_du alpha_pr  ls
   0  0.0000000e+00 4.84e-01 2.22e-16  -1.0 0.00e+00    -  0.00e+00 0.00e+00   0
   1  1.1566799e+00 7.39e-01 1.06e+05  -1.0 2.87e+05    -  2.89e-01 2.32e-01h  1
   2  1.2978440e+00 7.23e-01 1.04e+05  -1.0 2.45e+05    -  7.00e-01 1.69e-02h  1
   3  3.7107253e+00 5.84e-01 8.59e+04  -1.0 3.12e+05    -  7.24e-01 1.86e-01h  1
   4  3.6790687e+01 7.61e-02 2.45e+04  -1.0 2.71e+05    -  7.62e-01 9.90e-01h  1
   5  4.5016929e+01 1.21e-03 9.46e+02  -1.0 4.32e+04    -  9.57e-01 9.90e-01h  1
   6  4.5253579e+01 1.29e-05 1.28e+01  -1.0 1.21e+03    -  9.90e-01 9.90e-01h  1
   7  4.5254435e+01 1.27e-05 1.59e+07  -1.0 4.89e+02    -  9.90e-01 1.55e-02f  7
   8  4.5257968e+01 1.23e-05 3.12e+07  -1.0 1.03e+03    -  9.91e-01 3.09e-02f  6
   9  4.5369801e+01 1.16e-04 4.83e+05  -1.0 1.04e+03    -  1.00e+00 9.90e-01H  1
iter    objective    inf_pr   inf_du lg(mu)  ||d||  lg(rg) alpha_du alpha_pr  ls
  10  4.5369142e+01 1.12e-06 1.71e+07  -1.0 6.34e+00    -  1.00e+00 9.90e-01h  1
  11  4.5369142e+01 1.12e-08 1.71e+09  -1.0 1.52e-03    -  1.00e+00 9.90e-01h  1
  12  4.5369142e+01 1.12e-10 1.71e+11  -1.0 1.47e-05    -  1.00e+00 9.90e-01h  1
In iteration 12, 27 Slacks too small, adjusting variable bounds
  13  4.5369142e+01 1.01e-12 1.71e+13  -1.0 1.50e-07    -  1.00e+00 9.90e-01h  1
  14  4.5369142e+01 1.20e-12 8.44e+14  -1.0 1.54e-07    -  1.00e+00 5.00e-01h  2
  15  4.5369142e+01 1.11e-12 8.31e+14  -1.0 1.98e-07    -  1.00e+00 1.56e-02h  7
  16  4.5369142e+01 1.41e-12 8.30e+14  -1.0 1.82e-07    -  1.00e+00 9.77e-04h 11
  17  4.5369142e+01 8.36e-13 8.17e+14  -1.0 2.32e-07    -  1.00e+00 1.56e-02h  7
  18  4.5369142e+01 6.66e-13 8.14e+14  -1.0 2.26e-08    -  1.00e+00 3.91e-03h  9
  19  4.5369142e+01 6.72e-13 8.12e+14  -1.0 2.61e-08    -  1.00e+00 1.95e-03h 10
iter    objective    inf_pr   inf_du lg(mu)  ||d||  lg(rg) alpha_du alpha_pr  ls
  20  4.5369142e+01 4.91e-13 9.77e-02  -1.0 4.10e-08    -  1.00e+00 1.00e+00s 22
  21  4.5256573e+01 1.03e-03 1.74e+00  -9.0 1.20e+03    -  8.64e-01 8.64e-01s 22
  22  4.5254699e+01 2.75e-08 4.86e-04  -9.0 1.70e+01    -  1.00e+00 1.00e+00s 22
  23  4.5254699e+01 4.94e-12 6.17e-09  -9.0 2.95e-04    -  1.00e+00 1.00e+00s 22

Number of Iterations....: 23

                                   (scaled)                 (unscaled)
Objective...............:   4.5254698911326443e+01    4.5254698911326443e+01
Dual infeasibility......:   6.1700120568275452e-09    6.1700120568275452e-09
Constraint violation....:   4.9427129056311969e-12    4.9427129056311969e-12
Complementarity.........:   9.0919815756266352e-10    9.0919815756266352e-10
Overall NLP error.......:   6.0998114387526950e-11    6.1700120568275452e-09


Number of objective function evaluations             = 112
Number of objective gradient evaluations             = 24
Number of equality constraint evaluations            = 112
Number of inequality constraint evaluations          = 0
Number of equality constraint Jacobian evaluations   = 24
Number of inequality constraint Jacobian evaluations = 0
Number of Lagrangian Hessian evaluations             = 23
Total CPU secs in IPOPT (w/o function evaluations)   =      0.048
Total CPU secs in NLP function evaluations           =      0.869

EXIT: Optimal Solution Found.
